!   File created by MacMolPlt 7.7.3
 $CONTRL SCFTYP=RHF RUNTYP=HESSIAN EXETYP=RUN DFTTYP=B3LYP MAXIT=200 MULT=1 
    LOCAL=RUEDNBRG ISPHER=1 COORD=ZMT NZVAR=9 MOLPLT=.TRUE. $END
 $SYSTEM TIMLIM=525600 MEMORY=2000000 $END
 $BASIS GBASIS=ACCDC $END
 $GUESS GUESS=MOREAD NORB=12 $END
 $SCF DIRSCF=.TRUE. $END
 $FORCE METHOD=SEMINUM VIBSIZ=0.010000 PRTIFC=.TRUE. VIBANL=.TRUE. $END
 $DATA 
Title
C1
C
O  1    1.18187
O   1    1.32500  2 124.8441
H   3    0.94908  1 108.9349  2   0.0000
H   1    1.09026  3 110.6428  2 180.0000
 $END
 $ZMAT IZMAT(1)=1,2,1, 1,3,1, 2,3,1,2, 1,4,3, 2,4,3,1, 3,4,3,1,2, 1,5,1, 
    2,5,1,3, 3,5,1,3,2 $END
 $VEC
 1  1-2.20999995E-04-4.75999987E-04-6.63000019E-03 4.74000000E-04-2.65999988E-04
 1  2-0.00000000E+00 4.44799988E-03-2.75099999E-03-0.00000000E+00 4.30000000E-05
 1  3-3.11999989E-04 2.69000011E-04-1.30999993E-04 0.00000000E+00 0.00000000E+00
 1  4-3.09999996E-05-2.49999994E-05 1.60000000E-05 0.00000000E+00-3.26199993E-03
 1  5 3.84999992E-04-4.75000008E-04-0.00000000E+00-1.34600000E-03 4.83999989E-04
 1  6 8.61999986E-04 1.51800003E-03 0.00000000E+00 0.00000000E+00 2.89999996E-04
 1  7-6.50000002E-05 5.47999982E-04-7.99999980E-05 1.89999992E-05 0.00000000E+00
 1  8-7.98999972E-04-2.34000006E-04-0.00000000E+00 7.99999980E-05-7.10000022E-05
 1  9-9.00000032E-06 1.70000003E-05 0.00000000E+00-0.00000000E+00-1.29999999E-05
 1 10 6.00000021E-06-9.99999997E-07 0.00000000E+00 1.72000000E-04 3.49999988E-04
 1 11-8.09999983E-05 0.00000000E+00 2.51999998E-04-4.70000014E-05-2.05999997E-04
 1 12-3.99999999E-06 0.00000000E+00 0.00000000E+00-1.00194705E+00-2.98599992E-03
 1 13 1.06429998E-02-1.27600005E-03-6.61000027E-04 0.00000000E+00 3.42299999E-03
 1 14-3.07999988E-04-0.00000000E+00 6.00000021E-06-8.49999997E-05 7.89999976E-05
 1 15-1.99999999E-06 0.00000000E+00 0.00000000E+00 1.01999998E-04-3.72999988E-04
 1 16-2.50000012E-04 0.00000000E+00 6.51700003E-03 1.29100005E-03 4.40000003E-05
 1 17-0.00000000E+00 5.31000027E-04-9.30000024E-05-4.37999988E-04-3.91000009E-04
 1 18-0.00000000E+00-0.00000000E+00-2.22999995E-04-1.90200005E-03-7.00000019E-05
 1 19-3.69999994E-04 0.00000000E+00 3.14000004E-04 3.18000006E-04 7.68000027E-04
 1 20-0.00000000E+00 4.10000008E-04-1.20499998E-03-1.00999998E-04 2.93999998E-04
 1 21-0.00000000E+00 2.81999994E-04 2.92000012E-04-2.37999993E-04 0.00000000E+00
 2  1-2.68000003E-04-6.55999989E-04-7.16600008E-03-2.37000000E-04-1.88000005E-04
 2  2 0.00000000E+00-4.61799977E-03-4.36400017E-03 0.00000000E+00 2.84000009E-04
 2  3-2.79000000E-04-4.99999987E-06 5.30000019E-04 0.00000000E+00 0.00000000E+00
 2  4-1.80000003E-04-4.99999987E-06-9.99999997E-07 0.00000000E+00-3.45500000E-03
 2  5 1.95999994E-04-1.74999994E-04 0.00000000E+00-1.02900004E-03 1.36000002E-04
 2  6 8.92999989E-04-2.59499997E-03 0.00000000E+00-0.00000000E+00-1.00202799E+00
 2  7-3.01899994E-03 1.17539996E-02 1.48700003E-03 9.03000007E-04 0.00000000E+00
 2  8-3.25100007E-03-1.76100002E-03-0.00000000E+00-1.65000005E-04-6.50000002E-05
 2  9 2.30000005E-04-1.53999994E-04 0.00000000E+00 0.00000000E+00 1.30000000E-04
 2 10 3.83000006E-04 2.24999996E-04 0.00000000E+00 5.93200000E-03-1.40399998E-03
 2 11-5.99000021E-04-0.00000000E+00 3.83000006E-04-1.18000004E-04-2.65000010E-04
 2 12 5.08999976E-04 0.00000000E+00 0.00000000E+00-3.54999996E-04-4.80000017E-05
 2 13 7.79999973E-05 5.99999985E-05 9.99999975E-06 0.00000000E+00 5.61000023E-04
 2 14-1.46999999E-04-0.00000000E+00 7.89999976E-05-9.10000017E-05 1.10000001E-05
 2 15 1.89999992E-05 0.00000000E+00 0.00000000E+00-9.99999975E-06-4.99999987E-06
 2 16-9.99999997E-07 0.00000000E+00 1.42000004E-04-3.21000000E-04-4.36000002E-04
 2 17-0.00000000E+00 2.76000006E-04-7.30000029E-05-2.03000003E-04 7.20000025E-05
 2 18-0.00000000E+00 0.00000000E+00 7.00000010E-06-1.50000007E-04-2.49999994E-05
 2 19-6.90000015E-05-0.00000000E+00 3.34000011E-04-7.89999976E-05 1.97000001E-04
 2 20 0.00000000E+00 3.37000005E-04-2.17100000E-03 1.78999995E-04 2.96000013E-04
 2 21 0.00000000E+00 5.00000024E-04-8.95000005E-04-6.31999981E-04-0.00000000E+00
 3  1-1.00354695E+00-7.11800018E-03 1.06020002E-02 5.72999998E-04-1.22500001E-03
 3  2-0.00000000E+00 1.42400002E-03-6.77500013E-03 0.00000000E+00-9.07999987E-04
 3  3-2.64000002E-04 1.17199996E-03-1.13000002E-04 0.00000000E+00 0.00000000E+00
 3  4-2.58999993E-04 2.26999997E-04-9.69999965E-05 0.00000000E+00 3.09400004E-03
 3  5 2.26000004E-04-1.77199999E-03 0.00000000E+00 3.30999988E-04 6.41999999E-04
 3  6-9.73000017E-04 1.54099998E-03-0.00000000E+00-0.00000000E+00 8.29999990E-05
 3  7-7.08999985E-04 1.08399999E-03 5.69000025E-04 3.61000013E-04-0.00000000E+00
 3  8-2.28499994E-03-1.08099997E-03 0.00000000E+00-2.83000001E-04 7.30000029E-05
 3  9 2.09999998E-04-4.37000010E-04 0.00000000E+00 0.00000000E+00 3.40000006E-05
 3 10 9.99999997E-07 3.00000011E-06 0.00000000E+00-8.70000003E-05-1.34000002E-04
 3 11 3.27999995E-04 0.00000000E+00 9.50000016E-04-1.34000002E-04-8.15999985E-04
 3 12 1.09499996E-03 0.00000000E+00 0.00000000E+00-2.20000002E-04-8.34000006E-04
 3 13 2.37799995E-03-4.11999994E-04 1.86000005E-04-0.00000000E+00 3.17699998E-03
 3 14-1.04999996E-03-0.00000000E+00-9.89999971E-05 1.49000000E-04-4.89999984E-05
 3 15-1.40000002E-05 0.00000000E+00-0.00000000E+00-5.99999985E-05 9.99999997E-07
 3 16-1.99999999E-06 0.00000000E+00 3.88999993E-04 7.12000008E-04-5.25999989E-04
 3 17 0.00000000E+00 1.43199996E-03-8.09999998E-04-6.22000021E-04-6.67000015E-04
 3 18-0.00000000E+00 0.00000000E+00 2.51999998E-04 2.48100003E-03-1.80000003E-04
 3 19 1.65000005E-04-0.00000000E+00 8.03000003E-04 9.40000027E-05-9.23999993E-04
 3 20 0.00000000E+00-2.83000001E-04-1.27780000E-02-2.59999997E-05 3.22000007E-04
 3 21-0.00000000E+00-1.90399995E-03 6.98000018E-04-3.95199982E-03 0.00000000E+00
 4  1-1.41489999E-02 2.23286003E-01 4.89499979E-03-3.31100007E-03 9.95820016E-02
 4  2 0.00000000E+00 3.83929983E-02-5.01490012E-02-0.00000000E+00 3.03010009E-02
 4  3-1.29479999E-02-1.73540004E-02 1.26199995E-03-0.00000000E+00-0.00000000E+00
 4  4-2.20600003E-03 3.30000003E-05 3.02000000E-04 0.00000000E+00-2.52410006E-02
 4  5 4.65899985E-03-1.18119996E-02 0.00000000E+00-1.61130000E-02 2.88999989E-04
 4  6 1.58229992E-02 7.20500015E-03 0.00000000E+00-0.00000000E+00-6.83100009E-03
 4  7 2.19310001E-01 2.25131005E-01-8.31950009E-02-4.12059985E-02 0.00000000E+00
 4  8-4.02450003E-02-6.92099985E-03 0.00000000E+00 8.68900027E-03-2.71699997E-03
 4  9-5.97199984E-03 8.99800006E-03-0.00000000E+00-0.00000000E+00-2.27200007E-03
 4 10-1.59999996E-04-9.60000034E-05 0.00000000E+00 1.24249998E-02 4.21900023E-03
 4 11 4.01500007E-03 0.00000000E+00 4.96400008E-03-4.80300002E-03-1.61000004E-04
 4 12-4.37200023E-03-0.00000000E+00-0.00000000E+00-8.55300017E-03 3.26808989E-01
 4 13 3.43741000E-01 8.24190006E-02 1.90830007E-02-0.00000000E+00 6.68829978E-02
 4 14-3.95639986E-02 0.00000000E+00 7.09800003E-03 7.65000004E-04-7.86300004E-03
 4 15-2.79000006E-03-0.00000000E+00-0.00000000E+00-2.98100011E-03 9.30000024E-05
 4 16 1.20000004E-05-0.00000000E+00 5.11789992E-02 7.17299990E-03 1.73200003E-03
 4 17-0.00000000E+00 1.78210009E-02-2.31170002E-02 5.29599981E-03-3.73700005E-03
 4 18-0.00000000E+00 0.00000000E+00 1.48480996E-01 1.27579998E-02 2.91000004E-04
 4 19-3.03860009E-02 0.00000000E+00 5.62199997E-03 2.66800006E-03-6.01499993E-03
 4 20 0.00000000E+00 4.40360010E-02-3.77729982E-02-7.10000022E-05 1.32680004E-02
 4 21-0.00000000E+00-2.09499989E-03-3.19699990E-03-1.01709999E-02 0.00000000E+00
 5  1 1.17499998E-03-1.04658000E-01-8.76410007E-02-2.29966000E-01-6.54390007E-02
 5  2 0.00000000E+00 4.39580008E-02 2.14230008E-02-0.00000000E+00-2.93800002E-03
 5  3-2.34799995E-03 5.28499996E-03-4.61549982E-02-0.00000000E+00-0.00000000E+00
 5  4-1.30200002E-03-7.93999992E-04-1.61999997E-04 0.00000000E+00-5.89699997E-03
 5  5-5.72500005E-03 8.58000014E-03-0.00000000E+00-2.77599995E-03 3.86899989E-03
 5  6-1.09300006E-03 4.28210013E-02-0.00000000E+00 0.00000000E+00 9.51700006E-03
 5  7-3.37449014E-01-3.55190009E-01 8.65430012E-02 6.88600019E-02-0.00000000E+00
 5  8 1.36609999E-02 1.15240002E-02 0.00000000E+00-7.11800018E-03-9.15999990E-04
 5  9 8.03400017E-03-1.26160001E-02 0.00000000E+00-0.00000000E+00 3.18800006E-03
 5 10 2.99000007E-04 1.97999994E-04-0.00000000E+00-4.07599993E-02 1.07720001E-02
 5 11-4.96299984E-03 0.00000000E+00 1.01749999E-02-2.49699992E-03-7.67799979E-03
 5 12 9.36099980E-03-0.00000000E+00-0.00000000E+00-4.96899989E-03 2.74203986E-01
 5 13 2.88477987E-01 2.83780005E-02 2.05649994E-02-0.00000000E+00 1.88529994E-02
 5 14-3.06550004E-02 0.00000000E+00 1.90000006E-04 4.62500006E-03-4.81500011E-03
 5 15-2.35700002E-03-0.00000000E+00-0.00000000E+00-1.88200001E-03 7.50000036E-05
 5 16-7.00000010E-06-0.00000000E+00 3.45939994E-02 9.99999978E-03 9.01599973E-03
 5 17-0.00000000E+00 1.40700000E-03-1.19850002E-02 1.05780000E-02-7.17699993E-03
 5 18 0.00000000E+00 0.00000000E+00 1.29123002E-01 8.82900041E-03 1.17800001E-03
 5 19-2.52490006E-02 0.00000000E+00-5.45899989E-03 2.98399990E-03-8.94699991E-03
 5 20 0.00000000E+00-8.64099991E-03 4.82739992E-02-6.28700014E-03-2.53199995E-03
 5 21-0.00000000E+00 8.71099997E-03 1.49630001E-02 1.73940007E-02 0.00000000E+00
 6  1-2.19799997E-03 2.79653013E-01 1.39078006E-01-1.45836994E-01-1.33941993E-01
 6  2 0.00000000E+00-6.09700009E-03-4.28589992E-02 0.00000000E+00 1.83889996E-02
 6  3-9.96899977E-03-8.41899961E-03-7.60400016E-03-0.00000000E+00 0.00000000E+00
 6  4-6.08999981E-04-1.36000002E-04-7.40999996E-04 0.00000000E+00 7.31500005E-03
 6  5 2.82200007E-03 1.22800004E-03-0.00000000E+00 9.51800030E-03-2.65100002E-02
 6  6 1.69929992E-02 1.83179993E-02 0.00000000E+00 0.00000000E+00-6.02999993E-04
 6  7-1.18634000E-01-1.49394006E-01-4.57819998E-02-6.55819997E-02 0.00000000E+00
 6  8-3.89630012E-02-3.23650017E-02 0.00000000E+00 2.61999987E-04-9.00000032E-06
 6  9-2.54000013E-04 2.70999991E-03-0.00000000E+00-0.00000000E+00 2.96000013E-04
 6 10-8.90000010E-05-1.32000001E-04 0.00000000E+00-2.60060001E-02-6.29999995E-05
 6 11 7.71200005E-03-0.00000000E+00 7.28499983E-03-2.38500000E-03-4.90000006E-03
 6 12 6.93299994E-03 0.00000000E+00-0.00000000E+00-2.13899999E-03-7.79080018E-02
 6 13-5.23269996E-02 1.87631994E-01-3.05399001E-01 0.00000000E+00 1.10325001E-01
 6 14-1.17371000E-01 0.00000000E+00 1.49440002E-02-1.48879997E-02-5.60000008E-05
 6 15-1.26040000E-02-0.00000000E+00 0.00000000E+00-2.03000003E-04 3.80999991E-04
 6 16-6.43000007E-04 0.00000000E+00-7.47980028E-02-1.30470004E-02-2.06809994E-02
 6 17 0.00000000E+00-1.67599996E-03 1.50170000E-02-1.33410003E-02-1.89600000E-03
 6 18-0.00000000E+00-0.00000000E+00-2.71687001E-01 5.80950007E-02 6.58999989E-03
 6 19 3.86519991E-02-0.00000000E+00 4.00700001E-03 9.26600024E-03-2.22120006E-02
 6 20 0.00000000E+00 2.27467000E-01 5.47670014E-02-1.15599995E-03 2.52049994E-02
 6 21-0.00000000E+00-1.37800002E-03 9.77000035E-03 7.06000021E-04 0.00000000E+00
 7  1-3.46300006E-03 1.23119997E-02-8.81609991E-02 2.01575994E-01-3.39374006E-01
 7  2-0.00000000E+00 2.97970008E-02 4.87000012E-04-0.00000000E+00-1.48059996E-02
 7  3 3.98200005E-03 1.08240005E-02 1.68009996E-02 0.00000000E+00-0.00000000E+00
 7  4-3.65999993E-04 3.33000004E-04-1.01600005E-03-0.00000000E+00-1.19209997E-02
 7  5-6.82100002E-03 9.27199982E-03-0.00000000E+00-4.71099978E-03 1.59700005E-03
 7  6 3.11399996E-03 6.69200020E-03-0.00000000E+00 0.00000000E+00-1.46399997E-03
 7  7-5.45600010E-03-1.42800005E-03 1.43510997E-01-2.13918000E-01-0.00000000E+00
 7  8 8.90280008E-02-1.50440007E-01-0.00000000E+00-1.30890002E-02 1.28210001E-02
 7  9 2.69000011E-04 6.12400007E-03 0.00000000E+00 0.00000000E+00-2.81999994E-04
 7 10 2.01999996E-04-3.94000002E-04-0.00000000E+00-1.53010003E-02 1.49929998E-02
 7 11-5.03899995E-03 0.00000000E+00-1.09860003E-02 1.50990002E-02-4.11299989E-03
 7 12 1.21940002E-02 0.00000000E+00 0.00000000E+00-1.63999997E-04 6.68319985E-02
 7 13 1.12763003E-01-3.46222997E-01 6.43600002E-02-0.00000000E+00-1.97550997E-01
 7 14 8.01699981E-03-0.00000000E+00-1.82479993E-02 1.36070000E-02 4.64100018E-03
 7 15-6.00000028E-04 0.00000000E+00-0.00000000E+00-2.50000012E-04-6.28000009E-04
 7 16 9.69999965E-05-0.00000000E+00 2.02290006E-02-1.44469999E-02 1.23439999E-02
 7 17-0.00000000E+00-2.31199991E-03-9.46999993E-04 3.25999991E-03-1.22239999E-02
 7 18 0.00000000E+00 0.00000000E+00 9.00830030E-02 4.86199977E-03-1.51070002E-02
 7 19-8.77100043E-03 0.00000000E+00-9.63499956E-03-1.47699995E-03 7.89999976E-05
 7 20-0.00000000E+00 2.47507006E-01 2.14739993E-01 2.97900010E-03 1.94920003E-02
 7 21-0.00000000E+00 1.29779996E-02 6.63400022E-03 6.07110001E-02 0.00000000E+00
 8  1 4.48200013E-03 1.76352993E-01 1.17666997E-01 2.07197994E-01 8.41720030E-02
 8  2-0.00000000E+00 3.81090008E-02 4.00999980E-03-0.00000000E+00-1.37670003E-02
 8  3 1.96589995E-02-5.89200016E-03 1.01830000E-02 0.00000000E+00-0.00000000E+00
 8  4 2.13299994E-03 3.60000005E-04 7.89999976E-05-0.00000000E+00 4.44010012E-02
 8  5-2.84600002E-03 1.99800008E-03-0.00000000E+00-8.23999988E-04-1.08600000E-03
 8  6 1.91100000E-03 1.69990007E-02-0.00000000E+00-0.00000000E+00 2.03000003E-04
 8  7-1.94120005E-01-3.43531013E-01-3.30476999E-01-2.12856993E-01-0.00000000E+00
 8  8-1.57066002E-01-1.07660003E-01-0.00000000E+00 9.78800002E-03-2.87000003E-04
 8  9-9.50200018E-03 1.65010002E-02 0.00000000E+00 0.00000000E+00 4.91000013E-04
 8 10-7.60000024E-04-4.63000004E-04-0.00000000E+00-1.18263997E-01 6.26600021E-03
 8 11 2.12899991E-03 0.00000000E+00-3.87899997E-03 3.04799993E-03 8.30999983E-04
 8 12 1.41799997E-03 0.00000000E+00 0.00000000E+00-9.36000026E-04-9.45940018E-02
 8 13-1.68054000E-01 1.02737002E-01 2.97430992E-01-0.00000000E+00 8.29619989E-02
 8 14 1.50791004E-01-0.00000000E+00-1.51199999E-03 6.79800007E-03-5.28600020E-03
 8 15 9.21399985E-03-0.00000000E+00-0.00000000E+00-3.99999990E-05 1.74999994E-04
 8 16 6.13000011E-04-0.00000000E+00-3.24539989E-02 1.11220004E-02 1.74819995E-02
 8 17-0.00000000E+00 1.70230009E-02-1.90340001E-02 2.01099995E-03 7.82600045E-03
 8 18-0.00000000E+00 0.00000000E+00 2.04903007E-01 4.62110005E-02 6.54999982E-04
 8 19-2.51310002E-02 0.00000000E+00-4.03199997E-03 1.26299995E-03-4.10800008E-03
 8 20 0.00000000E+00 5.02850004E-02 1.54910004E-02 2.98799993E-03 4.67900001E-03
 8 21-0.00000000E+00-2.40899995E-03 1.49480002E-02 1.26900000E-03-0.00000000E+00
 9  1-0.00000000E+00-0.00000000E+00-0.00000000E+00-0.00000000E+00-0.00000000E+00
 9  2-2.89016008E-01-0.00000000E+00-0.00000000E+00-9.62250009E-02-0.00000000E+00
 9  3 0.00000000E+00-0.00000000E+00-0.00000000E+00 5.56899980E-03-2.33350005E-02
 9  4-0.00000000E+00-0.00000000E+00-0.00000000E+00-8.61999986E-04 0.00000000E+00
 9  5-0.00000000E+00 0.00000000E+00 8.23999988E-04 0.00000000E+00-0.00000000E+00
 9  6 0.00000000E+00 0.00000000E+00-4.04400006E-03 1.67190004E-02 0.00000000E+00
 9  7 0.00000000E+00 0.00000000E+00 0.00000000E+00 0.00000000E+00-2.66054988E-01
 9  8 0.00000000E+00 0.00000000E+00-1.85231000E-01-0.00000000E+00 0.00000000E+00
 9  9 0.00000000E+00-0.00000000E+00 1.45370001E-02 9.57299955E-03 0.00000000E+00
 9 10 0.00000000E+00 0.00000000E+00-4.04999999E-04 0.00000000E+00 0.00000000E+00
 9 11 0.00000000E+00-1.54449996E-02 0.00000000E+00 0.00000000E+00-0.00000000E+00
 9 12 0.00000000E+00 1.86049994E-02 9.28799994E-03-0.00000000E+00-0.00000000E+00
 9 13-0.00000000E+00 0.00000000E+00-0.00000000E+00-4.53294009E-01 0.00000000E+00
 9 14-0.00000000E+00-3.24411005E-01-0.00000000E+00-0.00000000E+00 0.00000000E+00
 9 15-0.00000000E+00-1.55010000E-02-2.03799992E-03-0.00000000E+00 0.00000000E+00
 9 16 0.00000000E+00-6.82000013E-04-0.00000000E+00 0.00000000E+00 0.00000000E+00
 9 17-3.18179987E-02 0.00000000E+00-0.00000000E+00 0.00000000E+00-0.00000000E+00
 9 18-2.64500007E-02-3.62999999E-04 0.00000000E+00 0.00000000E+00 0.00000000E+00
 9 19-0.00000000E+00-1.79420002E-02-0.00000000E+00 0.00000000E+00-0.00000000E+00
 9 20-6.66500023E-03 0.00000000E+00 0.00000000E+00-0.00000000E+00 0.00000000E+00
 9 21-8.73699971E-03 0.00000000E+00 0.00000000E+00 0.00000000E+00 8.06399994E-03
10  1-7.63599994E-03 2.03899993E-03-6.23590015E-02-1.99699000E-01-2.21368998E-01
10  2 0.00000000E+00-1.85979996E-02-5.83910011E-02 0.00000000E+00-3.04840002E-02
10  3 2.50530001E-02 5.43100014E-03-4.15840000E-02 0.00000000E+00 0.00000000E+00
10  4-3.50699993E-03-1.69000006E-04-5.15999971E-04 0.00000000E+00-1.01929996E-02
10  5-2.15419997E-02 4.57500014E-03-0.00000000E+00-1.10899995E-03-5.17799985E-03
10  6 6.28700014E-03 5.00870012E-02-0.00000000E+00-0.00000000E+00 1.38599996E-03
10  7 6.05450012E-02 1.41097993E-01 2.89034992E-01 1.59899995E-01 0.00000000E+00
10  8 1.35692999E-01 6.32250011E-02 0.00000000E+00-1.18910000E-02 3.77300009E-03
10  9 8.11900012E-03-1.26719996E-02-0.00000000E+00-0.00000000E+00 2.81999994E-04
10 10 7.12000008E-04 4.37000010E-04 0.00000000E+00 6.80160001E-02 1.12720001E-02
10 11 1.78999995E-04 0.00000000E+00 9.29999980E-04 6.33100001E-03-7.26100011E-03
10 12 9.09200031E-03-0.00000000E+00-0.00000000E+00-2.43199989E-03-1.17524996E-01
10 13-2.16011003E-01 2.89196998E-01 3.02974999E-01 0.00000000E+00 2.12008998E-01
10 14 1.60063997E-01 0.00000000E+00 4.95999993E-04 8.54600035E-03-9.04200040E-03
10 15 5.37100015E-03 0.00000000E+00-0.00000000E+00-2.50999990E-04 5.76000020E-04
10 16 5.55999984E-04 0.00000000E+00-1.11596003E-01 1.47479996E-02 2.69939993E-02
10 17 0.00000000E+00 1.62630007E-02-1.59949996E-02-2.68000003E-04 3.86400009E-03
10 18 0.00000000E+00 0.00000000E+00 2.24917993E-01 1.27320006E-01 8.67700018E-03
10 19-2.58389991E-02 0.00000000E+00-5.49399992E-03 1.49980001E-02-2.50390004E-02
10 20 0.00000000E+00 2.02634007E-01 1.37277007E-01-5.30599989E-03 1.38180004E-02
10 21 0.00000000E+00 1.47609999E-02 2.69760005E-02 2.50330009E-02-0.00000000E+00
11  1-0.00000000E+00-0.00000000E+00 0.00000000E+00-0.00000000E+00-0.00000000E+00
11  2-1.69670001E-01-0.00000000E+00 0.00000000E+00-9.13640037E-02-0.00000000E+00
11  3 0.00000000E+00 0.00000000E+00-0.00000000E+00-6.06490001E-02-1.67309996E-02
11  4-0.00000000E+00-0.00000000E+00-0.00000000E+00-3.94000002E-04 0.00000000E+00
11  5-0.00000000E+00 0.00000000E+00-1.18760001E-02 0.00000000E+00-0.00000000E+00
11  6 0.00000000E+00 0.00000000E+00-2.40299990E-03 2.95699993E-03 0.00000000E+00
11  7-0.00000000E+00-0.00000000E+00 0.00000000E+00-0.00000000E+00-4.47623998E-01
11  8 0.00000000E+00-0.00000000E+00-3.24359000E-01-0.00000000E+00 0.00000000E+00
11  9 0.00000000E+00-0.00000000E+00 1.62630007E-02 1.10630002E-02 0.00000000E+00
11 10 0.00000000E+00-0.00000000E+00-6.99999975E-04 0.00000000E+00 0.00000000E+00
11 11-0.00000000E+00-4.98269983E-02-0.00000000E+00 0.00000000E+00-0.00000000E+00
11 12 0.00000000E+00 1.85739994E-02 9.26600024E-03 0.00000000E+00 0.00000000E+00
11 13 0.00000000E+00 0.00000000E+00 0.00000000E+00 4.08069015E-01 0.00000000E+00
11 14 0.00000000E+00 3.14462990E-01 0.00000000E+00 0.00000000E+00-0.00000000E+00
11 15 0.00000000E+00 5.38100023E-03 4.66200011E-03 0.00000000E+00 0.00000000E+00
11 16 0.00000000E+00 6.20000006E-04-0.00000000E+00-0.00000000E+00 0.00000000E+00
11 17 6.59319982E-02 0.00000000E+00 0.00000000E+00-0.00000000E+00 0.00000000E+00
11 18 1.10259997E-02 6.29799999E-03-0.00000000E+00 0.00000000E+00 0.00000000E+00
11 19 0.00000000E+00 1.58430003E-02-0.00000000E+00 0.00000000E+00-0.00000000E+00
11 20 6.99000026E-04 0.00000000E+00 0.00000000E+00-0.00000000E+00 0.00000000E+00
11 21-6.01299992E-03 0.00000000E+00 0.00000000E+00 0.00000000E+00 5.61799994E-03
12  1 3.33099999E-03-2.19359994E-02-4.57319990E-02-1.77580006E-02 1.08764000E-01
12  2 0.00000000E+00-4.07930017E-02 4.30030003E-02 0.00000000E+00 7.65490010E-02
12  3-7.03599975E-02-6.18899986E-03-3.89829986E-02 0.00000000E+00 0.00000000E+00
12  4 1.02500001E-03 1.34999995E-04 1.38000003E-04-0.00000000E+00-3.62589993E-02
12  5-1.30160004E-02 2.64320001E-02-0.00000000E+00 1.45150004E-02-9.91700031E-03
12  6-4.59899986E-03 9.11000010E-04-0.00000000E+00-0.00000000E+00 1.63399999E-03
12  7 8.95399973E-03 5.56100020E-03 2.97650009E-01-4.78412986E-01 0.00000000E+00
12  8 2.21246004E-01-3.41654003E-01 0.00000000E+00-9.09200031E-03 9.64699965E-03
12  9-5.54999977E-04 6.16399990E-03-0.00000000E+00-0.00000000E+00 3.30000010E-04
12 10 5.00999973E-04-7.70999992E-04 0.00000000E+00 1.27699999E-02 3.83320004E-02
12 11-7.40950033E-02 0.00000000E+00-1.13329999E-02 5.50800003E-03 5.82499988E-03
12 12 2.34499993E-03-0.00000000E+00-0.00000000E+00-2.09999998E-05 2.97849998E-02
12 13 2.61039995E-02 2.29936004E-01-1.56699996E-02-0.00000000E+00 1.59195006E-01
12 14 1.64330006E-02-0.00000000E+00 6.45999983E-03-5.34600019E-03-1.11499999E-03
12 15 2.77899997E-03-0.00000000E+00-0.00000000E+00-2.90000007E-05 4.92000021E-04
12 16-6.50000002E-05-0.00000000E+00-4.22200002E-03 3.31260003E-02-9.51099955E-03
12 17-0.00000000E+00 1.00149997E-02-1.04189999E-02 4.03000013E-04 1.98350009E-02
12 18-0.00000000E+00-0.00000000E+00-2.41870005E-02-3.48949991E-02 9.21999977E-04
12 19-1.87799998E-03-0.00000000E+00-1.44400005E-03-1.91730000E-02 5.98700019E-03
12 20-0.00000000E+00-1.95888996E-01-1.17720999E-01-2.53699999E-03-3.53699992E-03
12 21 0.00000000E+00 1.27889998E-02 2.25879997E-02-1.49499997E-03-0.00000000E+00
 $END
