!   File created by MacMolPlt 7.7.3
 $CONTRL SCFTYP=RHF RUNTYP=OPTIMIZE DFTTYP=PW91 MAXIT=200 MULT=1 ISPHER=1 
    COORD=ZMT NZVAR=33 MOLPLT=.TRUE. $END
 $SYSTEM TIMLIM=525600 MEMORY=1000000 $END
 $BASIS GBASIS=CCD $END
 $SCF DIRSCF=.TRUE. $END
 $STATPT OPTTOL=0.0001 NSTEP=200 $END
 $DATA 
Phenol
C1
C
C  1    1.38633
C   2    1.38412  1 120.5207
C   3    1.38964  2 119.5563  1   0.0000
C   4    1.38143  3 120.5589  2   0.0000
C   1    1.39215  5  30.1925  4 180.0000
H   1    1.08205  6 119.7405  2 180.0000
H   2    1.08322  1 119.4191  3 180.0000
H   3    1.08136  2 120.2517  4 180.0000
H   4    1.08323  5 119.5647  3 180.0000
H   5    1.08144  6 119.0252  4 180.0000
O   6    1.39516  1 122.9680  5 180.0000
H   12    0.98876  6 105.3162  7   0.0000
 $END
 $ZMAT IZMAT(1)=1,2,1, 1,3,2, 2,3,2,1, 1,4,3, 2,4,3,2, 3,4,3,2,1, 1,5,4, 
    2,5,4,3, 3,5,4,3,2, 1,6,1, 2,6,1,5, 3,6,1,5,4, 1,7,1, 2,7,1,6, 3,7,1,6,2, 
    1,8,2, 2,8,2,1, 3,8,2,1,3, 1,9,3, 2,9,3,2, 3,9,3,2,4, 1,10,4, 2,10,4,5, 
    3,10,4,5,3, 1,11,5, 2,11,5,6, 3,11,5,6,4, 1,12,6, 2,12,6,1, 3,12,6,1,5, 
    1,13,12, 2,13,12,6, 3,13,12,6,7 $END
