!   File created by MacMolPlt 7.7.3
 $CONTRL SCFTYP=RHF RUNTYP=HESSIAN EXETYP=RUN DFTTYP=PW91 MAXIT=200 MULT=1 
    ISPHER=1 COORD=ZMT NZVAR=33 MOLPLT=.TRUE. $END
 $SYSTEM TIMLIM=525600 MEMORY=1000000 PARALL=.TRUE. $END
 $BASIS GBASIS=CCD $END
 $GUESS GUESS=MOREAD NORB=25 $END
 $SCF DIRSCF=.TRUE. $END
 $FORCE METHOD=SEMINUM VIBSIZ=0.010000 PRTIFC=.TRUE. VIBANL=.TRUE. $END
 $DATA 
Phenol
C1
C
C  1    1.39840
C   2    1.39727  1 120.5372
C   3    1.40032  2 119.2281  1   0.0000
C   4    1.39528  3 120.7652  2   0.0000
C   1    1.40162  5  30.0865  4 180.0000
H   1    1.09499  6 119.8828  2 180.0000
H   2    1.09288  1 119.2763  3 180.0000
H   3    1.09195  2 120.3696  4 180.0000
H   4    1.09297  5 119.2353  3 180.0000
H   5    1.09179  6 118.7028  4 180.0000
O   6    1.36659  1 122.7275  5 180.0000
H   12    0.96877  6 108.6656  7   0.0000
 $END
 $ZMAT IZMAT(1)=1,2,1, 1,3,2, 2,3,2,1, 1,4,3, 2,4,3,2, 3,4,3,2,1, 1,5,4, 
    2,5,4,3, 3,5,4,3,2, 1,6,1, 2,6,1,5, 3,6,1,5,4, 1,7,1, 2,7,1,6, 3,7,1,6,2, 
    1,8,2, 2,8,2,1, 3,8,2,1,3, 1,9,3, 2,9,3,2, 3,9,3,2,4, 1,10,4, 2,10,4,5, 
    3,10,4,5,3, 1,11,5, 2,11,5,6, 3,11,5,6,4, 1,12,6, 2,12,6,1, 3,12,6,1,5, 
    1,13,12, 2,13,12,6, 3,13,12,6,7 $END
 $VEC
 1  1-2.05000004E-04-3.64000007E-04 6.06000004E-03-6.70000009E-05-1.20999997E-04
 1  2 0.00000000E+00 4.68700007E-03 2.83999997E-03 0.00000000E+00-3.11000011E-04
 1  3 4.83999989E-04-1.72999993E-04 5.61999972E-04 0.00000000E+00 0.00000000E+00
 1  4 3.40000006E-05 4.60000010E-05-4.81500011E-03 6.29999995E-05-7.79999973E-05
 1  5 0.00000000E+00 1.91800005E-03-1.69000006E-04 0.00000000E+00 8.49999997E-05
 1  6-7.00000019E-05-1.49999996E-05 1.92000007E-04 0.00000000E+00 0.00000000E+00
 1  7-9.99999975E-05-1.76999994E-04 9.38999990E-04 8.80000007E-05-3.99999999E-06
 1  8 0.00000000E+00-1.27699994E-03 1.34000002E-04 0.00000000E+00 1.28000000E-04
 1  9-6.50000002E-05-6.29999995E-05 4.99999987E-06 0.00000000E+00 0.00000000E+00
 1 10-0.00000000E+00-1.80000006E-05-4.57199989E-03 1.04999999E-04 7.79999973E-05
 1 11 0.00000000E+00 1.54199998E-03 2.11999999E-04 0.00000000E+00 6.70000009E-05
 1 12-4.50000007E-05-2.09999998E-05-1.67000006E-04 0.00000000E+00 0.00000000E+00
 1 13-2.37999993E-04-4.27999999E-04 5.90900006E-03-2.80000004E-05 1.61000004E-04
 1 14 0.00000000E+00 4.24000015E-03-2.74199992E-03 0.00000000E+00-1.82000003E-04
 1 15 3.61000013E-04-1.78999995E-04-5.54999977E-04 0.00000000E+00 0.00000000E+00
 1 16 5.07000019E-04 9.28000023E-04 1.23299996E-03-3.27999995E-04 4.19999997E-05
 1 17 0.00000000E+00-1.16780000E-02-1.15000003E-04 0.00000000E+00-2.69999990E-04
 1 18 5.10999991E-04-2.41000002E-04 1.28999993E-04 0.00000000E+00 0.00000000E+00
 1 19-9.00000032E-06 1.24100002E-03-2.55999999E-04-2.39999994E-04 0.00000000E+00
 1 20 2.50000012E-04-5.09999991E-05-8.19999987E-05 6.29999995E-05 0.00000000E+00
 1 21 5.80000014E-05 3.11000011E-04 6.29999995E-05-7.00000010E-06 0.00000000E+00
 1 22 2.32000006E-04 1.10000001E-05-6.19999992E-05-6.29999995E-05 0.00000000E+00
 1 23-2.40000008E-05 1.03299995E-03-1.80000003E-04 2.61000008E-04 0.00000000E+00
 1 24 1.00433302E+00 9.81300045E-03-1.63039993E-02 1.01300003E-03-1.35699997E-03
 1 25 0.00000000E+00-4.20799991E-03 7.91000028E-04 0.00000000E+00-1.95000001E-04
 1 26 2.37999993E-04-4.30000000E-05 2.26999997E-04 0.00000000E+00 0.00000000E+00
 1 27 2.88000010E-04-5.98000013E-04-1.53999994E-04-9.86000057E-04 0.00000000E+00
 2  1 3.07599991E-03-1.54299999E-03 1.37970001E-02 3.50999995E-04-9.20000020E-04
 2  2 0.00000000E+00 2.14600004E-03 8.67599994E-03 0.00000000E+00 1.10000001E-05
 2  3-6.17999991E-04 6.07999973E-04 1.16300001E-03 0.00000000E+00 0.00000000E+00
 2  4-9.00000014E-05-1.55999995E-04-6.66100020E-03 2.24999996E-04-1.03999999E-04
 2  5 0.00000000E+00 9.44000029E-04-3.43900011E-03 0.00000000E+00 1.02999998E-04
 2  6 7.30000029E-05-1.76999994E-04 2.85999995E-04 0.00000000E+00 0.00000000E+00
 2  7-5.72999998E-04-7.83000025E-04 6.52999990E-03 1.95000001E-04 6.00000021E-06
 2  8 0.00000000E+00-3.55700008E-03-4.14000009E-04 0.00000000E+00 2.34000006E-04
 2  9-3.70000016E-05-1.97000001E-04-9.99999997E-07 0.00000000E+00 0.00000000E+00
 2 10-5.70000011E-05-1.06000000E-04-7.13599985E-03 2.01999996E-04 1.16000003E-04
 2 11 0.00000000E+00 1.74900005E-03 2.73999991E-03 0.00000000E+00 1.10000001E-04
 2 12 5.19999994E-05-1.61999997E-04-2.80999986E-04 0.00000000E+00 0.00000000E+00
 2 13 2.79899989E-03-1.43099995E-03 1.30820004E-02 2.92999990E-04 8.41000001E-04
 2 14 0.00000000E+00 3.60099995E-03-7.37999985E-03 0.00000000E+00-5.70000011E-05
 2 15-5.14000014E-04 5.70999982E-04-1.20399997E-03 0.00000000E+00 0.00000000E+00
 2 16 1.00657105E+00 1.63940005E-02-2.61359997E-02-6.48999994E-04-3.99999999E-06
 2 17 0.00000000E+00-1.44849997E-02 1.25900004E-03 0.00000000E+00 8.18000000E-04
 2 18 7.89999976E-05-8.97000020E-04-1.78999995E-04 0.00000000E+00 0.00000000E+00
 2 19 1.34000002E-04 2.73699989E-03 1.78000002E-04-1.88999998E-04 0.00000000E+00
 2 20-6.00000021E-06-6.13000011E-04 9.99999975E-06 1.53000001E-04 0.00000000E+00
 2 21-3.70000016E-05 9.23999993E-04 1.18999997E-04 1.40000002E-05 0.00000000E+00
 2 22 4.99999987E-05-4.83000011E-04-2.20000002E-05-1.42000004E-04 0.00000000E+00
 2 23 9.69999965E-05 2.18200008E-03 7.40000032E-05 2.43000002E-04 0.00000000E+00
 2 24 9.88999964E-04 1.78299996E-03-7.28000002E-03-2.36000007E-04 1.99000002E-04
 2 25 0.00000000E+00-3.58700007E-03 1.49000000E-04 0.00000000E+00-1.08600000E-03
 2 26 3.42999992E-04 7.43000011E-04 4.09999993E-05 0.00000000E+00 0.00000000E+00
 2 27 6.45000022E-04-1.07799994E-03 5.38999971E-04 2.07999998E-04 0.00000000E+00
 3  1 7.33029991E-02 6.29999995E-05 4.57799993E-03-1.06499996E-03-9.99999975E-05
 3  2 0.00000000E+00 4.20300011E-03 1.15400006E-03 0.00000000E+00-1.50999997E-03
 3  3 6.84000028E-04 8.26000003E-04 6.39999998E-05 0.00000000E+00 0.00000000E+00
 3  4 1.00363195E+00 1.65229999E-02-2.22759992E-02 1.12000002E-04-2.95000005E-04
 3  5 0.00000000E+00 3.13799991E-03-5.09699993E-03 0.00000000E+00 1.51000000E-04
 3  6 8.43000016E-04-9.94000002E-04-5.34999999E-04 0.00000000E+00 0.00000000E+00
 3  7 2.29310002E-02-8.49000004E-04 6.31400011E-03 6.02999993E-04 8.76999984E-04
 3  8 0.00000000E+00-3.62699991E-03-2.32600002E-03 0.00000000E+00 9.69999965E-05
 3  9-9.36999975E-04 8.39999993E-04-1.07000000E-03 0.00000000E+00 0.00000000E+00
 3 10 1.61399995E-03-3.58999998E-04-1.32100005E-03-7.99999998E-06 2.11000006E-04
 3 11 0.00000000E+00 1.32899999E-03 3.46999994E-04 0.00000000E+00 2.88999989E-04
 3 12-4.50000007E-05-2.43999995E-04-6.39999998E-05 0.00000000E+00 0.00000000E+00
 3 13-1.33700005E-03-6.91999972E-04 3.72699997E-03-1.06000000E-04 1.67999999E-04
 3 14 0.00000000E+00 3.21000000E-04-1.41000003E-03 0.00000000E+00 2.49999994E-05
 3 15 1.14000002E-04-1.38999996E-04-9.50000031E-05 0.00000000E+00 0.00000000E+00
 3 16-5.09999983E-04-4.48000006E-04-8.88000010E-04-1.80999996E-04 1.63000004E-04
 3 17 0.00000000E+00-4.41000011E-04-2.23900005E-03 0.00000000E+00-7.00000019E-05
 3 18 2.54000013E-04-1.84000004E-04 1.72000000E-04 0.00000000E+00 0.00000000E+00
 3 19-1.00999998E-04 1.07500004E-03-3.15999991E-04 7.89999976E-05 0.00000000E+00
 3 20-2.58499989E-03 6.70999987E-04 1.09300006E-03-1.88800006E-03 0.00000000E+00
 3 21 3.99999990E-05 1.15100003E-03-3.79999983E-05 2.93999998E-04 0.00000000E+00
 3 22-7.40000032E-05-6.90000015E-05-1.08000000E-04 2.30000005E-05 0.00000000E+00
 3 23-1.15000003E-04 4.30999993E-04-2.49999994E-05 3.79999983E-05 0.00000000E+00
 3 24-2.90000007E-05-5.70000011E-05 7.40000032E-05-2.70000000E-05-1.20000004E-05
 3 25 0.00000000E+00 2.51999998E-04 3.79000005E-04 0.00000000E+00 3.50000009E-05
 3 26-3.89999987E-05 3.00000011E-06 3.79999983E-05 0.00000000E+00 0.00000000E+00
 3 27 1.14000002E-04 1.36000002E-04 9.99999975E-06 3.19999999E-05 0.00000000E+00
 4  1 6.82599982E-03 7.52000022E-04-3.59599991E-03 1.02999998E-04 1.59000003E-04
 4  2 0.00000000E+00-5.47999982E-04-1.28900004E-03 0.00000000E+00-3.00000011E-06
 4  3-1.25000006E-04 1.27000007E-04-1.08000000E-04 0.00000000E+00 0.00000000E+00
 4  4 2.18699989E-03 4.00999998E-04 1.34500000E-03 2.09999998E-05 2.09999998E-04
 4  5 0.00000000E+00-1.42800005E-03 2.72000005E-04 0.00000000E+00-3.11000011E-04
 4  6 6.90000015E-05 2.43000002E-04-7.89999976E-05 0.00000000E+00 0.00000000E+00
 4  7-2.71559991E-02 7.45999976E-04-6.26099994E-03-5.94999990E-04 8.64000001E-04
 4  8 0.00000000E+00 3.64900008E-03-2.37699994E-03 0.00000000E+00-1.11000001E-04
 4  9 9.57000011E-04-8.45999981E-04-1.08299998E-03 0.00000000E+00 0.00000000E+00
 4 10-1.00565600E+00-1.66020002E-02 2.26109996E-02-8.90000010E-05-2.79000000E-04
 4 11 0.00000000E+00-3.21000000E-03-5.31300018E-03 0.00000000E+00-2.24999996E-04
 4 12-7.99999980E-04 1.02500001E-03-5.34999999E-04 0.00000000E+00 0.00000000E+00
 4 13-3.36779989E-02 6.48999994E-04-5.85900014E-03 1.06599997E-03-8.49999997E-05
 4 14 0.00000000E+00-4.19799984E-03 1.67000003E-03 0.00000000E+00 1.51500001E-03
 4 15-6.40999991E-04-8.74000019E-04 2.80000004E-05 0.00000000E+00 0.00000000E+00
 4 16 3.03000008E-04 3.86000000E-04 1.29900000E-03 1.53999994E-04 1.36000002E-04
 4 17 0.00000000E+00 6.90000015E-04-1.60700001E-03 0.00000000E+00 6.70000009E-05
 4 18-2.97999999E-04 2.32000006E-04 1.07000000E-04 0.00000000E+00 0.00000000E+00
 4 19 9.79999968E-05-3.86000000E-04 2.40000008E-05 3.79999983E-05 0.00000000E+00
 4 20 5.09999991E-05 7.79999973E-05 1.19999997E-04 1.49999996E-05 0.00000000E+00
 4 21-1.89999992E-05-1.15599995E-03 1.80000006E-05 3.00000014E-04 0.00000000E+00
 4 22 2.59199995E-03-6.10999996E-04-1.07500004E-03-1.89900002E-03 0.00000000E+00
 4 23-4.09999993E-05-1.17399998E-03 2.62999994E-04 1.84000004E-04 0.00000000E+00
 4 24 3.70000016E-05 7.40000032E-05-4.80000017E-05 3.40000006E-05 1.20000004E-05
 4 25 0.00000000E+00-1.93999993E-04 7.69999970E-05 0.00000000E+00-2.30000005E-05
 4 26 1.49999996E-05 7.99999998E-06 4.30000000E-05 0.00000000E+00 0.00000000E+00
 4 27-3.19999999E-05-1.00999998E-04-2.70000000E-05-1.40000002E-05 0.00000000E+00
 5  1 1.00402904E+00 1.68760009E-02-2.41519995E-02-1.38000003E-04-1.84999997E-04
 5  2 0.00000000E+00-1.96500006E-03-6.15199981E-03 0.00000000E+00 3.58999998E-04
 5  3 7.65000004E-04-1.12499995E-03 5.53000020E-04 0.00000000E+00 0.00000000E+00
 5  4-7.43450001E-02-2.39500008E-03 7.74700008E-03 1.01300003E-03-7.20000025E-05
 5  5 0.00000000E+00-3.57800000E-03 2.60000001E-03 0.00000000E+00-1.52100006E-03
 5  6 5.55999984E-04 9.65000014E-04 1.20000004E-05 0.00000000E+00 0.00000000E+00
 5  7-2.73600011E-03-3.15999991E-04-1.09899999E-03 1.06000000E-04 4.80000017E-05
 5  8 0.00000000E+00 8.20000016E-04-3.07000009E-04 0.00000000E+00-6.09999988E-05
 5  9 4.06000006E-04-3.45000008E-04-4.30000000E-05 0.00000000E+00 0.00000000E+00
 5 10 6.12699986E-03-4.03999991E-04 1.97000010E-03 1.36999995E-04 1.25000006E-04
 5 11 0.00000000E+00-7.82000017E-04-1.42000004E-04 0.00000000E+00-7.69999970E-05
 5 12 1.16000003E-04-3.89999987E-05 1.50000007E-04 0.00000000E+00 0.00000000E+00
 5 13-4.61999996E-04-4.90000006E-04 1.56300003E-03-3.19999999E-05 1.23000005E-04
 5 14 0.00000000E+00-2.08900007E-03-1.29100005E-03 0.00000000E+00 3.57999990E-04
 5 15-1.29999999E-05-3.45000008E-04 1.90000006E-04 0.00000000E+00 0.00000000E+00
 5 16-4.38799988E-03-1.20199996E-03 6.24299981E-03-5.72999998E-04 8.98000028E-04
 5 17 0.00000000E+00 2.72900006E-03-5.29599981E-03 0.00000000E+00 1.15000003E-04
 5 18-1.09200005E-03 9.75999981E-04 9.98000032E-04 0.00000000E+00 0.00000000E+00
 5 19-2.53499998E-03 6.17999991E-04-1.11700001E-03-1.91400002E-03 0.00000000E+00
 5 20 2.88999989E-04 1.03599997E-03 1.18999997E-04 3.42000014E-04 0.00000000E+00
 5 21-3.99999990E-05-9.69999965E-05-3.19999999E-05 5.29999998E-05 0.00000000E+00
 5 22-1.50000007E-04 2.35000000E-04 2.99999992E-05 3.50000009E-05 0.00000000E+00
 5 23-7.79999973E-05 1.80000003E-04 1.19999997E-04 3.60000013E-05 0.00000000E+00
 5 24-6.70000009E-05-1.38000003E-04 2.73999991E-04-2.59999997E-05-7.00000010E-06
 5 25 0.00000000E+00 1.57999995E-04 9.51000024E-04 0.00000000E+00 3.79999983E-05
 5 26-2.40000008E-05-1.40000002E-05 1.25999999E-04 0.00000000E+00 0.00000000E+00
 5 27 2.66999996E-04 1.80000003E-04 6.19999992E-05 1.16000003E-04 0.00000000E+00
 6  1 1.40000004E-04-5.06000011E-04 1.72399997E-03-3.50000009E-05-1.19999997E-04
 6  2 0.00000000E+00-2.08200002E-03 1.43099995E-03 0.00000000E+00 3.61000013E-04
 6  3 6.00000021E-06-3.67000001E-04-1.84000004E-04 0.00000000E+00 0.00000000E+00
 6  4 8.95000005E-04-5.08000026E-04 2.02800008E-03 1.40000004E-04-1.25999999E-04
 6  5 0.00000000E+00-7.34000001E-04 1.16000003E-04 0.00000000E+00-6.29999995E-05
 6  6 1.12000002E-04-4.89999984E-05-1.32999994E-04 0.00000000E+00 0.00000000E+00
 6  7-7.60000013E-03-4.60000010E-04-6.04000001E-04 1.30999993E-04-9.69999965E-05
 6  8 0.00000000E+00 6.61000027E-04 5.23000024E-04 0.00000000E+00-5.90000018E-05
 6  9 3.72000010E-04-3.12999997E-04 9.20000020E-05 0.00000000E+00 0.00000000E+00
 6 10-3.46180014E-02-1.80099998E-03 7.13399984E-03 1.06399995E-03 7.89999976E-05
 6 11 0.00000000E+00-3.72499996E-03-2.23800004E-03 0.00000000E+00-1.54199998E-03
 6 12 6.12000003E-04 9.28999973E-04-3.89999987E-05 0.00000000E+00 0.00000000E+00
 6 13 1.00614703E+00 1.68820005E-02-2.39509996E-02-1.11000001E-04 1.07000000E-04
 6 14 0.00000000E+00-2.28499994E-03 5.84399980E-03 0.00000000E+00 3.95000010E-04
 6 15 6.99999975E-04-1.09499996E-03-6.00999978E-04 0.00000000E+00 0.00000000E+00
 6 16-4.03899979E-03-1.15300005E-03 5.79300011E-03-5.70999982E-04-8.98999977E-04
 6 17 0.00000000E+00 2.47299997E-03 5.12900017E-03 0.00000000E+00 1.50000007E-04
 6 18-1.10600004E-03 9.54999996E-04-9.36000026E-04 0.00000000E+00 0.00000000E+00
 6 19-7.79999973E-05 1.99000002E-04 1.27000007E-04-5.09999991E-05 0.00000000E+00
 6 20-1.42999997E-04 2.24000003E-04 2.09999998E-05-2.20000002E-05 0.00000000E+00
 6 21-3.60000013E-05-6.09999988E-05-4.40000003E-05-7.00000019E-05 0.00000000E+00
 6 22 1.82999996E-04 1.05399999E-03 1.76000001E-04-2.87000003E-04 0.00000000E+00
 6 23-2.55200011E-03 7.32999993E-04-1.10500003E-03 1.88000000E-03 0.00000000E+00
 6 24-9.89999971E-05-1.88000005E-04 4.29999985E-04-6.19999992E-05 2.90000007E-05
 6 25 0.00000000E+00-9.30000024E-05-7.80000002E-04 0.00000000E+00-2.30000005E-05
 6 26 1.04999999E-04-8.19999987E-05-5.90000018E-05 0.00000000E+00 0.00000000E+00
 6 27-1.95999994E-04 1.21999998E-04 9.30000024E-05-1.20999997E-04 0.00000000E+00
 7  1-8.26000003E-04 3.03999986E-04 1.14800001E-03 1.38000003E-04 7.79999973E-05
 7  2 0.00000000E+00-6.23000029E-04 1.35300006E-03 0.00000000E+00-1.80999996E-04
 7  3-1.32999994E-04 3.12999997E-04 2.39999994E-04 0.00000000E+00 0.00000000E+00
 7  4 2.41170004E-02 1.56500004E-03-7.06799980E-03 4.56999987E-04 9.30999988E-04
 7  5 0.00000000E+00-4.33000008E-04-4.57799993E-03 0.00000000E+00-7.20000025E-05
 7  6 1.02700002E-03-9.54999996E-04 1.05800002E-03 0.00000000E+00 0.00000000E+00
 7  7-1.00602806E+00-1.67839993E-02 2.31030006E-02-1.86999998E-04 1.20000004E-05
 7  8 0.00000000E+00-6.53300015E-03-6.39999998E-05 0.00000000E+00-1.12499995E-03
 7  9-1.10000001E-05 1.13600004E-03-9.00000032E-06 0.00000000E+00 0.00000000E+00
 7 10 2.85160001E-02 1.63399999E-03-7.26999994E-03 4.49000014E-04-9.13999975E-04
 7 11 0.00000000E+00-3.06000002E-04 4.54400014E-03 0.00000000E+00-5.50000004E-05
 7 12 1.00900000E-03-9.53999988E-04-1.06799998E-03 0.00000000E+00 0.00000000E+00
 7 13-6.28799992E-03 2.11999999E-04 1.24799996E-03 1.27000007E-04-8.39999993E-05
 7 14 0.00000000E+00-3.88999993E-04-1.27000001E-03 0.00000000E+00-1.86999998E-04
 7 15-1.28000000E-04 3.15000012E-04-2.53000006E-04 0.00000000E+00 0.00000000E+00
 7 16 2.09000005E-04 5.99000021E-04-2.95799994E-03 1.51999993E-04 7.99999998E-06
 7 17 0.00000000E+00-9.74000024E-04 1.42000004E-04 0.00000000E+00-1.42000004E-04
 7 18 1.03999999E-04 3.79999983E-05-1.10000001E-05 0.00000000E+00 0.00000000E+00
 7 19 5.90000018E-05 1.11000001E-04 7.79999973E-05-7.00000019E-05 0.00000000E+00
 7 20-1.74999994E-04-1.07700005E-03 3.42999992E-04 2.09999998E-05 0.00000000E+00
 7 21 2.65299994E-03-5.07000019E-04-2.21699988E-03-3.00000011E-06 0.00000000E+00
 7 22-1.71000007E-04-1.07300002E-03 3.41000006E-04-1.60000000E-05 0.00000000E+00
 7 23 6.60000005E-05 5.99999985E-05 7.20000025E-05 7.10000022E-05 0.00000000E+00
 7 24 1.80000006E-05 4.09999993E-05 1.70000003E-05 3.60000013E-05 6.00000021E-06
 7 25 0.00000000E+00-9.99999997E-07-1.30000000E-04 0.00000000E+00 1.40000002E-05
 7 26-1.99999999E-06-1.20000004E-05-4.99999987E-06 0.00000000E+00 0.00000000E+00
 7 27-7.50000036E-05-1.46999999E-04-4.30000000E-05-1.20000004E-05 0.00000000E+00
 8  1-3.39999999E-04 3.64480019E-02-3.24169993E-02-1.83719993E-02 1.91399995E-02
 8  2 0.00000000E+00 3.54900002E-03-2.62899995E-02 0.00000000E+00 3.68999992E-03
 8  3-2.25499994E-03-1.43499998E-03-9.16699972E-03 0.00000000E+00 0.00000000E+00
 8  4-1.14000002E-04 6.56899996E-03 1.08789997E-02-4.32399986E-03 2.18400010E-03
 8  5 0.00000000E+00 3.09300004E-03 7.89699983E-03 0.00000000E+00-1.55000002E-04
 8  6 2.22999995E-04-6.80000012E-05-3.12100002E-03 0.00000000E+00 0.00000000E+00
 8  7 5.34999999E-04 4.73000016E-03-5.28299995E-03-2.80999998E-03 6.19999992E-05
 8  8 0.00000000E+00 2.46699993E-03 4.50199982E-03 0.00000000E+00-1.00799999E-03
 8  9 1.33700005E-03-3.27999995E-04-4.80000017E-05 0.00000000E+00 0.00000000E+00
 8 10-1.55000002E-04 6.16999995E-03 1.05360001E-02-3.53399990E-03-2.45200004E-03
 8 11 0.00000000E+00-3.15600005E-03 1.14900002E-03 0.00000000E+00-5.30000019E-04
 8 12 5.00999973E-04 2.90000007E-05 3.19500011E-03 0.00000000E+00 0.00000000E+00
 8 13-1.22099998E-03 3.21279988E-02 6.61499985E-03-1.68629996E-02-1.81389991E-02
 8 14 0.00000000E+00-1.59600005E-02 5.87600004E-03 0.00000000E+00 4.55600023E-03
 8 15-4.00099996E-03-5.55999984E-04 9.38499998E-03 0.00000000E+00 0.00000000E+00
 8 16-1.40239997E-02 1.52554005E-01 1.15773000E-01-1.20200001E-01-2.66300002E-03
 8 17 0.00000000E+00 1.99270006E-02-3.67109999E-02 0.00000000E+00 3.17099988E-02
 8 18-1.60510000E-02-1.56590007E-02 4.24800022E-03 0.00000000E+00 0.00000000E+00
 8 19 1.25559997E-02-7.11200014E-03 3.57999990E-04 4.04000003E-03 0.00000000E+00
 8 20-1.61000004E-04-2.49999994E-05-1.30000000E-04-9.02000000E-04 0.00000000E+00
 8 21 9.35000018E-04-1.10100000E-03-3.76999989E-04-1.49000000E-04 0.00000000E+00
 8 22-7.61999981E-04-1.35200005E-03-7.99999998E-06 8.07999982E-04 0.00000000E+00
 8 23 1.10950004E-02-3.21800006E-03 1.47799996E-03-4.03100019E-03 0.00000000E+00
 8 24-7.49900006E-03 4.21321988E-01 3.78033012E-01 7.74009973E-02-8.31589997E-02
 8 25 0.00000000E+00 3.42330001E-02 7.39700021E-03 0.00000000E+00 7.27100018E-03
 8 26-6.39999998E-05-7.20599992E-03-1.63000004E-04 0.00000000E+00 0.00000000E+00
 8 27 1.76448002E-01 1.00900000E-02 1.72789991E-02 3.23919989E-02 0.00000000E+00
 9  1 1.25749996E-02-1.77148998E-01-1.00394003E-01-4.03379984E-02-5.47319986E-02
 9  2 0.00000000E+00-8.17599986E-03-7.85700046E-03 0.00000000E+00-5.20200003E-03
 9  3-2.36200006E-03 7.56399985E-03 8.55999999E-04 0.00000000E+00 0.00000000E+00
 9  4 1.29530001E-02-1.85910001E-01-1.05143003E-01 3.40449996E-02-5.77370003E-02
 9  5 0.00000000E+00 6.78899977E-03-1.34819997E-02 0.00000000E+00-5.84700005E-03
 9  6-2.82899989E-03 8.67599994E-03-3.44199990E-03 0.00000000E+00 0.00000000E+00
 9  7 1.29589997E-02-1.81262001E-01-9.48890001E-02 6.77860007E-02 1.20299996E-03
 9  8 0.00000000E+00 1.05269998E-02 1.77199999E-03 0.00000000E+00-1.50000001E-03
 9  9-6.76500006E-03 8.26499984E-03-1.11000001E-04 0.00000000E+00 0.00000000E+00
 9 10 1.25949997E-02-1.82549998E-01-1.00685999E-01 3.29620019E-02 5.77390008E-02
 9 11 0.00000000E+00 2.78200000E-03 1.53780002E-02 0.00000000E+00-5.76200010E-03
 9 12-2.77399994E-03 8.53599980E-03 3.45600001E-03 0.00000000E+00 0.00000000E+00
 9 13 1.21950004E-02-1.73971996E-01-9.45610031E-02-3.88280004E-02 5.61229996E-02
 9 14 0.00000000E+00-1.43259997E-02 5.42999990E-03 0.00000000E+00-4.49500000E-03
 9 15-3.13100009E-03 7.62599986E-03-7.66000012E-04 0.00000000E+00 0.00000000E+00
 9 16 6.84700022E-03-1.55412003E-01-9.02350023E-02-9.73040015E-02-1.64899998E-03
 9 17 0.00000000E+00-1.75829995E-02-4.91600018E-03 0.00000000E+00 2.37099989E-03
 9 18-1.00550000E-02 7.68399984E-03 1.72199996E-03 0.00000000E+00 0.00000000E+00
 9 19-4.42330018E-02-7.96000008E-04-4.00999980E-03-6.60800003E-03 0.00000000E+00
 9 20-4.83219996E-02-2.41500000E-03 4.16299980E-03-7.34000001E-03 0.00000000E+00
 9 21-4.58710007E-02-9.87999956E-04 8.13400000E-03 6.00000021E-06 0.00000000E+00
 9 22-4.70709987E-02-2.26400001E-03 4.11000010E-03 7.16800010E-03 0.00000000E+00
 9 23-4.22030017E-02-1.42999997E-04-3.72099993E-03 6.27700007E-03 0.00000000E+00
 9 24 2.05999997E-04 8.21050033E-02 7.93709978E-02-2.96960007E-02-2.89079994E-02
 9 25 0.00000000E+00-1.33769996E-02-1.22199999E-03 0.00000000E+00-2.37399992E-03
 9 26 2.07900000E-03 2.93999998E-04 1.06000004E-03 0.00000000E+00 0.00000000E+00
 9 27 5.53070009E-02 5.37799997E-03 3.41999996E-03 9.06199962E-03 0.00000000E+00
10  1 1.31679997E-02-2.10785002E-01-1.09076999E-01-6.17769994E-02 1.28340004E-02
10  2 0.00000000E+00-3.05749997E-02 4.49000020E-03 0.00000000E+00-1.24840001E-02
10  3 6.86800014E-03 5.61599992E-03 1.02400000E-03 0.00000000E+00 0.00000000E+00
10  4 1.42360004E-02-2.22426996E-01-1.25175998E-01 5.59809990E-02 4.13999986E-03
10  5 0.00000000E+00 2.46670004E-02-4.17899992E-03 0.00000000E+00-1.16649996E-02
10  6 5.57299983E-03 6.09199982E-03-3.26999999E-03 0.00000000E+00 0.00000000E+00
10  7 1.70599995E-03-2.46140007E-02-1.42440004E-02 2.78400001E-03 1.06660999E-01
10  8 0.00000000E+00 8.45999981E-04 4.25730012E-02 0.00000000E+00 5.31000027E-04
10  9-1.17199996E-03 6.40999991E-04-1.59540009E-02 0.00000000E+00 0.00000000E+00
10 10-1.22130001E-02 1.95926994E-01 1.04767002E-01-7.16470033E-02 1.43170003E-02
10 11 0.00000000E+00-2.72289999E-02-8.19999987E-05 0.00000000E+00 1.31209996E-02
10 12-7.82999955E-03-5.29100001E-03-6.90000015E-04 0.00000000E+00 0.00000000E+00
10 13-1.45509997E-02 2.36297995E-01 1.18510000E-01 4.34870012E-02-7.56799988E-03
10 14 0.00000000E+00 2.97769997E-02 2.38399999E-03 0.00000000E+00 1.04179997E-02
10 15-4.48299991E-03-5.93499979E-03 3.70600005E-03 0.00000000E+00 0.00000000E+00
10 16-1.07500004E-03 3.55149992E-02 2.42529996E-02 3.34000011E-04 1.40000999E-01
10 17 0.00000000E+00 5.89000015E-03 6.77459985E-02 0.00000000E+00 1.93000000E-04
10 18 9.59999976E-04-1.15200004E-03 1.32010002E-02 0.00000000E+00 0.00000000E+00
10 19-9.05980021E-02-1.29349995E-02-7.01900013E-03-1.03909997E-02 0.00000000E+00
10 20-9.23829973E-02-1.23790000E-02 7.61000020E-03-1.08530000E-02 0.00000000E+00
10 21-9.96599998E-03-1.15200004E-03 1.48400001E-03 2.74399994E-03 0.00000000E+00
10 22 8.02830011E-02 1.03200004E-02-7.21699977E-03-9.14099999E-03 0.00000000E+00
10 23 9.58570018E-02 1.12159997E-02 7.55300000E-03-1.15179997E-02 0.00000000E+00
10 24-3.21000000E-04-3.65499989E-03 3.56100011E-03 2.62449998E-02 4.32199985E-02
10 25 0.00000000E+00 1.06659997E-02 1.22229997E-02 0.00000000E+00 2.16599996E-03
10 26-2.00200011E-03-1.63999997E-04 2.61799991E-03 0.00000000E+00 0.00000000E+00
10 27-3.53710018E-02-3.42399999E-03-3.13699991E-03-4.00599977E-03 0.00000000E+00
11  1 9.67099983E-03-1.57842994E-01-8.41140002E-02 6.26820028E-02-6.04850017E-02
11  2 0.00000000E+00 2.74500009E-02-2.33110003E-02 0.00000000E+00 6.37099985E-03
11  3-9.08800028E-03 2.71699997E-03 9.37500037E-03 0.00000000E+00 0.00000000E+00
11  4-5.60599985E-03 9.29210037E-02 4.90400009E-02 9.38709974E-02 6.35629967E-02
11  5 0.00000000E+00 3.87579985E-02 2.49129999E-02 0.00000000E+00-9.57500003E-03
11  6 1.15369996E-02-1.96200004E-03 1.02190003E-02 0.00000000E+00 0.00000000E+00
11  7-1.61610004E-02 2.49412999E-01 1.43610001E-01-2.66689993E-02 1.41860005E-02
11  8 0.00000000E+00-1.71780009E-02 7.80599983E-03 0.00000000E+00-4.42800019E-03
11  9 1.07880002E-02-6.36000000E-03-2.14600004E-03 0.00000000E+00 0.00000000E+00
11 10-9.40399989E-03 1.48859993E-01 8.56200010E-02 7.76330009E-02-5.95420003E-02
11 11 0.00000000E+00 2.62770001E-02-2.37559993E-02 0.00000000E+00-6.41700020E-03
11 12 9.91300028E-03-3.49600008E-03-1.07890004E-02 0.00000000E+00 0.00000000E+00
11 13 6.01099990E-03-1.04477003E-01-5.34479991E-02 8.22720006E-02 6.58150017E-02
11 14 0.00000000E+00 2.57569999E-02 2.24040002E-02 0.00000000E+00 1.03569999E-02
11 15-1.20999999E-02 1.74300000E-03-8.92200042E-03 0.00000000E+00 0.00000000E+00
11 16 7.92299956E-03-2.38729998E-01-1.32052004E-01-6.64990023E-02 7.30499998E-03
11 17 0.00000000E+00-2.89430004E-02 7.44000019E-04 0.00000000E+00 5.56399999E-03
11 18-1.34490002E-02 7.88499974E-03 5.59700001E-03 0.00000000E+00 0.00000000E+00
11 19-6.41750023E-02-7.88499974E-03-2.90299999E-03-9.09399986E-03 0.00000000E+00
11 20 3.92480008E-02 4.40400001E-03-4.03000013E-04 6.15199981E-03 0.00000000E+00
11 21 1.04938000E-01 1.43999998E-02-1.49600003E-02 2.64000002E-04 0.00000000E+00
11 22 6.31090030E-02 7.93800037E-03-2.23700004E-03-8.89899954E-03 0.00000000E+00
11 23-4.19760011E-02-4.12499998E-03-5.56999992E-04 6.53500017E-03 0.00000000E+00
11 24 1.71300001E-03 1.01322003E-01 9.23570022E-02-1.03138000E-01-5.82269989E-02
11 25 0.00000000E+00-4.92830016E-02-6.45500002E-03 0.00000000E+00-6.64100004E-03
11 26 4.98400023E-03 1.65600004E-03 3.07999994E-03 0.00000000E+00 0.00000000E+00
11 27 1.04562998E-01 1.56849995E-02 3.95199982E-03 1.54179996E-02 0.00000000E+00
12  1 6.70199981E-03-1.76936001E-01-1.02384001E-01 6.21430017E-02 1.84799992E-02
12  2 0.00000000E+00 2.33549997E-02-1.26219997E-02 0.00000000E+00 3.91300023E-03
12  3-4.10200004E-03 1.88999998E-04 4.19999997E-05 0.00000000E+00 0.00000000E+00
12  4-4.39700019E-03 1.21096000E-01 6.64440021E-02 1.32636994E-01 4.35249992E-02
12  5 0.00000000E+00 4.65000011E-02 2.37569995E-02 0.00000000E+00-6.80699991E-03
12  6 6.01400016E-03 7.92999985E-04 4.75900015E-03 0.00000000E+00 0.00000000E+00
12  7-4.37399978E-03 1.03983000E-01 6.61349967E-02 2.48310007E-02-1.44141003E-01
12  8 0.00000000E+00-2.33600009E-03-4.17280011E-02 0.00000000E+00-1.99100003E-03
12  9 1.73300004E-03 2.58999993E-04 9.90399998E-03 0.00000000E+00 0.00000000E+00
12 10 7.45799998E-03-1.82766005E-01-1.14445001E-01 1.24080004E-02-5.07530011E-02
12 11 0.00000000E+00 8.20000004E-03 3.79000005E-04 0.00000000E+00-1.94800005E-03
12 12 2.70799990E-03-7.60000024E-04-9.99999997E-07 0.00000000E+00 0.00000000E+00
12 13 5.43000002E-04 4.42549996E-02 5.31900022E-03-1.67765006E-01-5.98100014E-02
12 14 0.00000000E+00-4.61330004E-02-1.88309997E-02 0.00000000E+00-7.55799981E-03
12 15 6.25099987E-03 1.30700006E-03 6.56600017E-03 0.00000000E+00 0.00000000E+00
12 16-4.30000000E-05 9.93710011E-02 7.48620033E-02-9.22589973E-02 1.98294997E-01
12 17 0.00000000E+00-6.64900010E-03 6.54520020E-02 0.00000000E+00 8.89699999E-03
12 18-6.63999980E-03-2.25599995E-03-7.19500007E-03 0.00000000E+00 0.00000000E+00
12 19-1.27139002E-01-3.25689986E-02-4.09399997E-03-1.21870004E-02 0.00000000E+00
12 20 8.07589963E-02 1.68929994E-02-2.15200009E-03 8.84999987E-03 0.00000000E+00
12 21 7.02880025E-02 1.55859999E-02-7.82200042E-03-3.01999995E-03 0.00000000E+00
12 22-1.20141998E-01-2.71719992E-02 7.43000023E-03 1.12089999E-02 0.00000000E+00
12 23 4.35599983E-02 1.06039997E-02-1.49900001E-03-6.05300022E-03 0.00000000E+00
12 24-8.15999985E-04-1.04999999E-04 2.77270004E-02 1.71816006E-01 1.73302993E-01
12 25 0.00000000E+00 7.20970035E-02 5.99180013E-02 0.00000000E+00 9.39800031E-03
12 26-9.03800037E-03-3.61000013E-04 1.11099996E-03 0.00000000E+00 0.00000000E+00
12 27-1.71805993E-01-3.40490006E-02-7.56700011E-03-1.74380001E-02 0.00000000E+00
13  1-1.30999993E-04 2.39720009E-02 7.30000017E-03-1.76697999E-01 9.93449986E-02
13  2 0.00000000E+00-5.69010004E-02 3.13780010E-02 0.00000000E+00-8.26099981E-03
13  3 7.09499978E-03 1.16600003E-03-5.87600004E-03 0.00000000E+00 0.00000000E+00
13  4 6.41799998E-03-1.83047995E-01-1.13917999E-01 4.13280018E-02 9.52949971E-02
13  5 0.00000000E+00 2.04579998E-02 1.43910004E-02 0.00000000E+00-2.57600006E-03
13  6 4.40899981E-03-1.83299999E-03 1.34800002E-03 0.00000000E+00 0.00000000E+00
13  7-6.02599978E-03 1.61539003E-01 1.00741997E-01 4.37059999E-02 1.17243998E-01
13  8 0.00000000E+00-6.10999996E-04 3.59469987E-02 0.00000000E+00-1.12999999E-03
13  9-2.64000002E-04 1.39400002E-03-6.58700010E-03 0.00000000E+00 0.00000000E+00
13 10-8.22999980E-04 2.77529992E-02 1.89750008E-02 1.74655005E-01-9.26939994E-02
13 11 0.00000000E+00 5.51429987E-02-3.35769989E-02 0.00000000E+00-8.14499985E-03
13 12 8.09300039E-03 5.09999991E-05-5.46099991E-03 0.00000000E+00 0.00000000E+00
13 13 7.65099982E-03-1.86611995E-01-1.22547999E-01-3.17090005E-02-8.39969963E-02
13 14 0.00000000E+00-1.76270008E-02-8.34299996E-03 0.00000000E+00-3.42399999E-03
13 15 4.16600006E-03-7.40999996E-04 1.18499994E-03 0.00000000E+00 0.00000000E+00
13 16-3.29000002E-04 1.69514999E-01 1.06227003E-01-5.45229986E-02-1.31971002E-01
13 17 0.00000000E+00 5.53000020E-03-4.30999994E-02 0.00000000E+00 4.92099999E-03
13 18-2.65599997E-03-2.26500002E-03-7.96199962E-03 0.00000000E+00 0.00000000E+00
13 19 1.30160004E-02 4.09399997E-03-2.46699993E-03 3.76900006E-03 0.00000000E+00
13 20-1.39241993E-01-3.38919982E-02 8.76499992E-03-1.17579997E-02 0.00000000E+00
13 21 1.15989000E-01 2.80770008E-02-1.23410001E-02 2.37199990E-03 0.00000000E+00
13 22 1.85669996E-02 4.84400010E-03 2.57700006E-03-3.65699991E-03 0.00000000E+00
13 23-1.37125999E-01-3.36190015E-02-8.92200042E-03 1.15520004E-02 0.00000000E+00
13 24-1.34800002E-03-6.30490035E-02-6.01800010E-02 1.77481994E-01 3.49479988E-02
13 25 0.00000000E+00 8.71760026E-02-2.46499991E-03 0.00000000E+00 7.80599983E-03
13 26-5.51800011E-03-2.28799996E-03-7.61700002E-03 0.00000000E+00 0.00000000E+00
13 27-1.07717998E-01-3.04949991E-02 1.78000005E-03-1.44880004E-02 0.00000000E+00
14  1-2.81400001E-03 5.54529987E-02 5.02090007E-02 1.91430002E-02-1.89925998E-01
14  2 0.00000000E+00 1.05729997E-02-4.79249991E-02 0.00000000E+00 9.72000044E-03
14  3-1.26799997E-02 2.95999995E-03-6.57099998E-03 0.00000000E+00 0.00000000E+00
14  4-2.28799996E-03 4.08889987E-02 3.82950008E-02-3.81579995E-02-1.61607996E-01